problems/csplib-prob015/SchursLemma-models/noch/O2/lingeling/model_1_2-6-16-solution000001.eprime-solution
language ESSENCE' 1.0

letting boxes_PartitionAsSet_ExplicitR6_ExplicitVarSizeWithDummy be
        [[1, 3, 7, 9, 11, 17, 17, 17, 17, 17, 17, 17, 17, 17, 17, 17; int(1..16)],
         [2, 17, 17, 17, 17, 17, 17, 17, 17, 17, 17, 17, 17, 17, 17, 17; int(1..16)],
         [4, 17, 17, 17, 17, 17, 17, 17, 17, 17, 17, 17, 17, 17, 17, 17; int(1..16)],
         [5, 6, 8, 10, 12, 17, 17, 17, 17, 17, 17, 17, 17, 17, 17, 17; int(1..16)],
         [13, 14, 15, 17, 17, 17, 17, 17, 17, 17, 17, 17, 17, 17, 17, 17; int(1..16)],
         [16, 17, 17, 17, 17, 17, 17, 17, 17, 17, 17, 17, 17, 17, 17, 17; int(1..16)]; int(1..6)]
