problems/csplib-prob015/SchursLemma-models/noch/O2/lingeling/model_1_2-6-16-solution000001.solution
language Essence 1.3

letting boxes be partition({1, 3, 7, 9, 11}, {2}, {4}, {5, 6, 8, 10, 12}, {13, 14, 15}, {16})
